letting initialStacks = [29, 18, 32, 27, 14, 36, 20, 11, 37, 43, 17, 24, 35, 49, 7, 5, 25, 38, 23, 6, 30, 9, 46, 42, 44, 47, 12, 41, 31, 26, 51, 15, 22, 16, 4, 19, 2, 28, 50, 13, 1, 21, 33, 3, 40, 48, 34, 10, 39, 45, 8]
